Total weight: 1083.28333783468
Route 1: 0 33 65 71 51 30 7 82 18 99 59 87 2 15 92 95 13 73 56 74 43 38 100 93 58 0 
Route 2: 0 85 61 16 86 44 14 42 57 41 22 40 28 48 36 49 64 63 90 32 10 70 20 66 35 34 68 80 77 0 
Route 3: 0 53 21 72 75 23 67 39 26 12 76 50 3 79 81 9 78 29 24 54 4 55 25 0 
Route 4: 0 27 69 1 31 88 62 11 19 47 46 8 83 60 84 5 96 6 89 52 0 
Route 5: 0 94 97 37 98 91 45 17 0 
